\ Model OP
\ LP format - for model browsing. Use MPS format to capture full model detail.
Maximize
  86 x_0_1 + 86 x_0_2 + 86 x_0_3 + 86 x_0_4 + 86 x_0_5 + 86 x_0_6 + 86 x_0_7
   + 86 x_0_8 + 86 x_0_9 + 66 x_1_0 + 66 x_1_2 + 66 x_1_3 + 66 x_1_4
   + 66 x_1_5 + 66 x_1_6 + 66 x_1_7 + 66 x_1_8 + 66 x_1_9 + 88 x_2_0
   + 88 x_2_1 + 88 x_2_3 + 88 x_2_4 + 88 x_2_5 + 88 x_2_6 + 88 x_2_7
   + 88 x_2_8 + 88 x_2_9 + 74 x_3_0 + 74 x_3_1 + 74 x_3_2 + 74 x_3_4
   + 74 x_3_5 + 74 x_3_6 + 74 x_3_7 + 74 x_3_8 + 74 x_3_9 + 86 x_4_0
   + 86 x_4_1 + 86 x_4_2 + 86 x_4_3 + 86 x_4_5 + 86 x_4_6 + 86 x_4_7
   + 86 x_4_8 + 86 x_4_9 + 61 x_5_0 + 61 x_5_1 + 61 x_5_2 + 61 x_5_3
   + 61 x_5_4 + 61 x_5_6 + 61 x_5_7 + 61 x_5_8 + 61 x_5_9 + 98 x_6_0
   + 98 x_6_1 + 98 x_6_2 + 98 x_6_3 + 98 x_6_4 + 98 x_6_5 + 98 x_6_7
   + 98 x_6_8 + 98 x_6_9 + 47 x_7_0 + 47 x_7_1 + 47 x_7_2 + 47 x_7_3
   + 47 x_7_4 + 47 x_7_5 + 47 x_7_6 + 47 x_7_8 + 47 x_7_9 + 3 x_8_0
   + 3 x_8_1 + 3 x_8_2 + 3 x_8_3 + 3 x_8_4 + 3 x_8_5 + 3 x_8_6 + 3 x_8_7
   + 3 x_8_9 + 49 x_9_0 + 49 x_9_1 + 49 x_9_2 + 49 x_9_3 + 49 x_9_4
   + 49 x_9_5 + 49 x_9_6 + 49 x_9_7 + 49 x_9_8 + 0 u_0
Subject To
 leave_9: x_0_1 + x_0_2 + x_0_3 + x_0_4 + x_0_5 + x_0_6 + x_0_7 + x_0_8
   + x_0_9 = 1
 enter_9: x_1_0 + x_2_0 + x_3_0 + x_4_0 + x_5_0 + x_6_0 + x_7_0 + x_8_0
   + x_9_0 = 1
 leave_1: x_1_0 + x_1_2 + x_1_3 + x_1_4 + x_1_5 + x_1_6 + x_1_7 + x_1_8
   + x_1_9 <= 1
 enter_1: x_0_1 - x_1_0 - x_1_2 - x_1_3 - x_1_4 - x_1_5 - x_1_6 - x_1_7
   - x_1_8 - x_1_9 + x_2_1 + x_3_1 + x_4_1 + x_5_1 + x_6_1 + x_7_1 + x_8_1
   + x_9_1 = 0
 leave_2: x_2_0 + x_2_1 + x_2_3 + x_2_4 + x_2_5 + x_2_6 + x_2_7 + x_2_8
   + x_2_9 <= 1
 enter_2: x_0_2 + x_1_2 - x_2_0 - x_2_1 - x_2_3 - x_2_4 - x_2_5 - x_2_6
   - x_2_7 - x_2_8 - x_2_9 + x_3_2 + x_4_2 + x_5_2 + x_6_2 + x_7_2 + x_8_2
   + x_9_2 = 0
 leave_3: x_3_0 + x_3_1 + x_3_2 + x_3_4 + x_3_5 + x_3_6 + x_3_7 + x_3_8
   + x_3_9 <= 1
 enter_3: x_0_3 + x_1_3 + x_2_3 - x_3_0 - x_3_1 - x_3_2 - x_3_4 - x_3_5
   - x_3_6 - x_3_7 - x_3_8 - x_3_9 + x_4_3 + x_5_3 + x_6_3 + x_7_3 + x_8_3
   + x_9_3 = 0
 leave_4: x_4_0 + x_4_1 + x_4_2 + x_4_3 + x_4_5 + x_4_6 + x_4_7 + x_4_8
   + x_4_9 <= 1
 enter_4: x_0_4 + x_1_4 + x_2_4 + x_3_4 - x_4_0 - x_4_1 - x_4_2 - x_4_3
   - x_4_5 - x_4_6 - x_4_7 - x_4_8 - x_4_9 + x_5_4 + x_6_4 + x_7_4 + x_8_4
   + x_9_4 = 0
 leave_5: x_5_0 + x_5_1 + x_5_2 + x_5_3 + x_5_4 + x_5_6 + x_5_7 + x_5_8
   + x_5_9 <= 1
 enter_5: x_0_5 + x_1_5 + x_2_5 + x_3_5 + x_4_5 - x_5_0 - x_5_1 - x_5_2
   - x_5_3 - x_5_4 - x_5_6 - x_5_7 - x_5_8 - x_5_9 + x_6_5 + x_7_5 + x_8_5
   + x_9_5 = 0
 leave_6: x_6_0 + x_6_1 + x_6_2 + x_6_3 + x_6_4 + x_6_5 + x_6_7 + x_6_8
   + x_6_9 <= 1
 enter_6: x_0_6 + x_1_6 + x_2_6 + x_3_6 + x_4_6 + x_5_6 - x_6_0 - x_6_1
   - x_6_2 - x_6_3 - x_6_4 - x_6_5 - x_6_7 - x_6_8 - x_6_9 + x_7_6 + x_8_6
   + x_9_6 = 0
 leave_7: x_7_0 + x_7_1 + x_7_2 + x_7_3 + x_7_4 + x_7_5 + x_7_6 + x_7_8
   + x_7_9 <= 1
 enter_7: x_0_7 + x_1_7 + x_2_7 + x_3_7 + x_4_7 + x_5_7 + x_6_7 - x_7_0
   - x_7_1 - x_7_2 - x_7_3 - x_7_4 - x_7_5 - x_7_6 - x_7_8 - x_7_9 + x_8_7
   + x_9_7 = 0
 leave_8: x_8_0 + x_8_1 + x_8_2 + x_8_3 + x_8_4 + x_8_5 + x_8_6 + x_8_7
   + x_8_9 <= 1
 enter_8: x_0_8 + x_1_8 + x_2_8 + x_3_8 + x_4_8 + x_5_8 + x_6_8 + x_7_8
   - x_8_0 - x_8_1 - x_8_2 - x_8_3 - x_8_4 - x_8_5 - x_8_6 - x_8_7 - x_8_9
   + x_9_8 = 0
 leave_9: x_9_0 + x_9_1 + x_9_2 + x_9_3 + x_9_4 + x_9_5 + x_9_6 + x_9_7
   + x_9_8 <= 1
 enter_9: x_0_9 + x_1_9 + x_2_9 + x_3_9 + x_4_9 + x_5_9 + x_6_9 + x_7_9
   + x_8_9 - x_9_0 - x_9_1 - x_9_2 - x_9_3 - x_9_4 - x_9_5 - x_9_6 - x_9_7
   - x_9_8 = 0
 R20: 23.75588073063658 x_0_1 + 67.25130252140386 x_0_2
   + 94.92762090428486 x_0_3 + 84.00775336784443 x_0_4
   + 63.82791760229156 x_0_5 + 50.5671948355847 x_0_6
   + 73.17603123709864 x_0_7 + 82.48643714130363 x_0_8
   + 78.14251455882875 x_0_9 + 23.75588073063658 x_1_0
   + 63.01258291750391 x_1_2 + 104.1634730173441 x_1_3
   + 86.57923687373895 x_1_4 + 69.35288297748399 x_1_5
   + 63.41071162604184 x_1_6 + 88.99263121033438 x_1_7
   + 96.50873298463857 x_1_8 + 100.5760660687184 x_1_9
   + 67.25130252140386 x_2_0 + 63.01258291750391 x_2_1
   + 57.61097444473773 x_2_3 + 29.56288120596368 x_2_4
   + 27.11786926578753 x_2_5 + 45.39210325937847 x_2_6
   + 65.68340131779588 x_2_7 + 65.01899583644075 x_2_8
   + 101.8077724910597 x_2_9 + 94.92762090428486 x_3_0
   + 104.1634730173441 x_3_1 + 57.61097444473773 x_3_2
   + 30.31039016193344 x_3_4 + 35.86104684976836 x_3_5
   + 44.86923035780026 x_3_6 + 34.75339549004165 x_3_7
   + 24.0423577749013 x_3_8 + 76.95062352183982 x_3_9
   + 84.00775336784443 x_4_0 + 86.57923687373895 x_4_1
   + 29.56288120596368 x_4_2 + 30.31039016193344 x_4_3
   + 21.18460080610781 x_4_5 + 42.89895933040513 x_4_6
   + 50.83860066956966 x_4_7 + 45.31353949705113 x_4_8
   + 93.02786334185201 x_4_9 + 63.82791760229156 x_5_0
   + 69.35288297748399 x_5_1 + 27.11786926578753 x_5_2
   + 35.86104684976836 x_5_3 + 21.18460080610781 x_5_4
   + 22.76602076459181 x_5_6 + 38.69352804753242 x_5_7
   + 38.16237860562718 x_5_8 + 77.09325793746282 x_5_9
   + 50.5671948355847 x_6_0 + 63.41071162604184 x_6_1
   + 45.39210325937847 x_6_2 + 44.86923035780026 x_6_3
   + 42.89895933040513 x_6_4 + 22.76602076459181 x_6_5
   + 26.55152427785046 x_6_7 + 33.09929542816742 x_6_8
   + 56.43908530115573 x_6_9 + 73.17603123709864 x_7_0
   + 88.99263121033438 x_7_1 + 65.68340131779588 x_7_2
   + 34.75339549004165 x_7_3 + 50.83860066956966 x_7_4
   + 38.69352804753242 x_7_5 + 26.55152427785046 x_7_6
   + 11.81404241237614 x_7_8 + 43.21183540381729 x_7_9
   + 82.48643714130363 x_8_0 + 96.50873298463857 x_8_1
   + 65.01899583644075 x_8_2 + 24.0423577749013 x_8_3
   + 45.31353949705113 x_8_4 + 38.16237860562718 x_8_5
   + 33.09929542816742 x_8_6 + 11.81404241237614 x_8_7
   + 52.90927579339238 x_8_9 + 78.14251455882875 x_9_0
   + 100.5760660687184 x_9_1 + 101.8077724910597 x_9_2
   + 76.95062352183982 x_9_3 + 93.02786334185201 x_9_4
   + 77.09325793746282 x_9_5 + 56.43908530115573 x_9_6
   + 43.21183540381729 x_9_7 + 52.90927579339238 x_9_8 <= 180
 seq_1_2: 9 x_1_2 + u_1 - u_2 <= 8
 seq_1_3: 9 x_1_3 + u_1 - u_3 <= 8
 seq_1_4: 9 x_1_4 + u_1 - u_4 <= 8
 seq_1_5: 9 x_1_5 + u_1 - u_5 <= 8
 seq_1_6: 9 x_1_6 + u_1 - u_6 <= 8
 seq_1_7: 9 x_1_7 + u_1 - u_7 <= 8
 seq_1_8: 9 x_1_8 + u_1 - u_8 <= 8
 seq_1_9: 9 x_1_9 + u_1 - u_9 <= 8
 seq_2_1: 9 x_2_1 - u_1 + u_2 <= 8
 seq_2_3: 9 x_2_3 + u_2 - u_3 <= 8
 seq_2_4: 9 x_2_4 + u_2 - u_4 <= 8
 seq_2_5: 9 x_2_5 + u_2 - u_5 <= 8
 seq_2_6: 9 x_2_6 + u_2 - u_6 <= 8
 seq_2_7: 9 x_2_7 + u_2 - u_7 <= 8
 seq_2_8: 9 x_2_8 + u_2 - u_8 <= 8
 seq_2_9: 9 x_2_9 + u_2 - u_9 <= 8
 seq_3_1: 9 x_3_1 - u_1 + u_3 <= 8
 seq_3_2: 9 x_3_2 - u_2 + u_3 <= 8
 seq_3_4: 9 x_3_4 + u_3 - u_4 <= 8
 seq_3_5: 9 x_3_5 + u_3 - u_5 <= 8
 seq_3_6: 9 x_3_6 + u_3 - u_6 <= 8
 seq_3_7: 9 x_3_7 + u_3 - u_7 <= 8
 seq_3_8: 9 x_3_8 + u_3 - u_8 <= 8
 seq_3_9: 9 x_3_9 + u_3 - u_9 <= 8
 seq_4_1: 9 x_4_1 - u_1 + u_4 <= 8
 seq_4_2: 9 x_4_2 - u_2 + u_4 <= 8
 seq_4_3: 9 x_4_3 - u_3 + u_4 <= 8
 seq_4_5: 9 x_4_5 + u_4 - u_5 <= 8
 seq_4_6: 9 x_4_6 + u_4 - u_6 <= 8
 seq_4_7: 9 x_4_7 + u_4 - u_7 <= 8
 seq_4_8: 9 x_4_8 + u_4 - u_8 <= 8
 seq_4_9: 9 x_4_9 + u_4 - u_9 <= 8
 seq_5_1: 9 x_5_1 - u_1 + u_5 <= 8
 seq_5_2: 9 x_5_2 - u_2 + u_5 <= 8
 seq_5_3: 9 x_5_3 - u_3 + u_5 <= 8
 seq_5_4: 9 x_5_4 - u_4 + u_5 <= 8
 seq_5_6: 9 x_5_6 + u_5 - u_6 <= 8
 seq_5_7: 9 x_5_7 + u_5 - u_7 <= 8
 seq_5_8: 9 x_5_8 + u_5 - u_8 <= 8
 seq_5_9: 9 x_5_9 + u_5 - u_9 <= 8
 seq_6_1: 9 x_6_1 - u_1 + u_6 <= 8
 seq_6_2: 9 x_6_2 - u_2 + u_6 <= 8
 seq_6_3: 9 x_6_3 - u_3 + u_6 <= 8
 seq_6_4: 9 x_6_4 - u_4 + u_6 <= 8
 seq_6_5: 9 x_6_5 - u_5 + u_6 <= 8
 seq_6_7: 9 x_6_7 + u_6 - u_7 <= 8
 seq_6_8: 9 x_6_8 + u_6 - u_8 <= 8
 seq_6_9: 9 x_6_9 + u_6 - u_9 <= 8
 seq_7_1: 9 x_7_1 - u_1 + u_7 <= 8
 seq_7_2: 9 x_7_2 - u_2 + u_7 <= 8
 seq_7_3: 9 x_7_3 - u_3 + u_7 <= 8
 seq_7_4: 9 x_7_4 - u_4 + u_7 <= 8
 seq_7_5: 9 x_7_5 - u_5 + u_7 <= 8
 seq_7_6: 9 x_7_6 - u_6 + u_7 <= 8
 seq_7_8: 9 x_7_8 + u_7 - u_8 <= 8
 seq_7_9: 9 x_7_9 + u_7 - u_9 <= 8
 seq_8_1: 9 x_8_1 - u_1 + u_8 <= 8
 seq_8_2: 9 x_8_2 - u_2 + u_8 <= 8
 seq_8_3: 9 x_8_3 - u_3 + u_8 <= 8
 seq_8_4: 9 x_8_4 - u_4 + u_8 <= 8
 seq_8_5: 9 x_8_5 - u_5 + u_8 <= 8
 seq_8_6: 9 x_8_6 - u_6 + u_8 <= 8
 seq_8_7: 9 x_8_7 - u_7 + u_8 <= 8
 seq_8_9: 9 x_8_9 + u_8 - u_9 <= 8
 seq_9_1: 9 x_9_1 - u_1 + u_9 <= 8
 seq_9_2: 9 x_9_2 - u_2 + u_9 <= 8
 seq_9_3: 9 x_9_3 - u_3 + u_9 <= 8
 seq_9_4: 9 x_9_4 - u_4 + u_9 <= 8
 seq_9_5: 9 x_9_5 - u_5 + u_9 <= 8
 seq_9_6: 9 x_9_6 - u_6 + u_9 <= 8
 seq_9_7: 9 x_9_7 - u_7 + u_9 <= 8
 seq_9_8: 9 x_9_8 - u_8 + u_9 <= 8
 R93: u_1 >= 1
 R94: u_1 <= 9
 R95: u_2 >= 1
 R96: u_2 <= 9
 R97: u_3 >= 1
 R98: u_3 <= 9
 R99: u_4 >= 1
 R100: u_4 <= 9
 R101: u_5 >= 1
 R102: u_5 <= 9
 R103: u_6 >= 1
 R104: u_6 <= 9
 R105: u_7 >= 1
 R106: u_7 <= 9
 R107: u_8 >= 1
 R108: u_8 <= 9
 R109: u_9 >= 1
 R110: u_9 <= 9
Bounds
Binaries
 x_0_1 x_0_2 x_0_3 x_0_4 x_0_5 x_0_6 x_0_7 x_0_8 x_0_9 x_1_0 x_1_2 x_1_3
 x_1_4 x_1_5 x_1_6 x_1_7 x_1_8 x_1_9 x_2_0 x_2_1 x_2_3 x_2_4 x_2_5 x_2_6
 x_2_7 x_2_8 x_2_9 x_3_0 x_3_1 x_3_2 x_3_4 x_3_5 x_3_6 x_3_7 x_3_8 x_3_9
 x_4_0 x_4_1 x_4_2 x_4_3 x_4_5 x_4_6 x_4_7 x_4_8 x_4_9 x_5_0 x_5_1 x_5_2
 x_5_3 x_5_4 x_5_6 x_5_7 x_5_8 x_5_9 x_6_0 x_6_1 x_6_2 x_6_3 x_6_4 x_6_5
 x_6_7 x_6_8 x_6_9 x_7_0 x_7_1 x_7_2 x_7_3 x_7_4 x_7_5 x_7_6 x_7_8 x_7_9
 x_8_0 x_8_1 x_8_2 x_8_3 x_8_4 x_8_5 x_8_6 x_8_7 x_8_9 x_9_0 x_9_1 x_9_2
 x_9_3 x_9_4 x_9_5 x_9_6 x_9_7 x_9_8
End
